benchmark/results/graph__10-1000-0.10-02_1/graph__10-1000-0.10-02_1_QuintonOs_Benders_sub.lp
\ This file has been generated by DOcplex
\ ENCODING=ISO-8859-1
\Problem name: Quinton Bounded Benders_dual_sub

Minimize
 obj: 0.000779423227 pi_nr_a0 + 0.000839630563 pi_nr_a1
      + 0.001642036125 pi_nr_a2 + 0.000881834215 pi_nr_a3
      + 0.002369668246 pi_nr_a4 + 0.001644736842 pi_nr_a5
      + 0.001751313485 pi_nr_a6 + 0.001091703057 pi_nr_a7
      + 0.001949317739 pi_nr_a8 + 0.000845308538 pi_nr_a9 + pi_p_a0_a1
      + pi_p_a3_a6 + pi_p_a2_a8 + pi_p_a9_a5 + pi_p_a5_a8 + pi_p_a9_a4
      + 1295 pi_d_a0_a2_proc_1 + 1272 pi_d_a2_a0_proc_1 + 11 pi_d_a0_a4_proc_1
      - 10 pi_d_a4_a0_proc_1 + 1272 pi_d_a0_a5_proc_1 + 1295 pi_d_a5_a0_proc_1
      + 1295 pi_d_a0_a6_proc_1 + 1272 pi_d_a6_a0_proc_1 + 10 pi_d_a0_a7_proc_1
      - 9 pi_d_a7_a0_proc_1 + 11 pi_d_a0_a8_proc_1 - 10 pi_d_a8_a0_proc_1
      + 10 pi_d_a0_a9_proc_1 - 9 pi_d_a9_a0_proc_1 + 10 pi_d_a1_a2_proc_0
      - 9 pi_d_a2_a1_proc_0 + 10 pi_d_a1_a3_proc_0 - 9 pi_d_a3_a1_proc_0
      + 1272 pi_d_a1_a4_proc_0 + 1295 pi_d_a4_a1_proc_0 + 10 pi_d_a1_a5_proc_0
      - 9 pi_d_a5_a1_proc_0 + 11 pi_d_a1_a6_proc_0 - 10 pi_d_a6_a1_proc_0
      + 1272 pi_d_a1_a7_proc_0 + 1295 pi_d_a7_a1_proc_0 + 1295 pi_d_a1_a8_proc_0
      + 1272 pi_d_a8_a1_proc_0 + pi_d_a2_a3_proc_0 + 1295 pi_d_a2_a4_proc_1
      + 1295 pi_d_a2_a4_proc_0 + 1272 pi_d_a4_a2_proc_1 + 1272 pi_d_a4_a2_proc_0
      + 2567 pi_d_a2_a5_proc_1 + pi_d_a2_a5_proc_0 + 2566 pi_d_a5_a2_proc_1
      + 2567 pi_d_a2_a6_proc_1 + pi_d_a2_a6_proc_0 + 2566 pi_d_a6_a2_proc_1
      + 1295 pi_d_a2_a7_proc_1 + 1295 pi_d_a2_a7_proc_0 + 1272 pi_d_a7_a2_proc_1
      + 1272 pi_d_a7_a2_proc_0 + 1295 pi_d_a2_a8_proc_1 + 1295 pi_d_a2_a8_proc_0
      + 1272 pi_d_a8_a2_proc_1 + 1272 pi_d_a8_a2_proc_0 + 1295 pi_d_a2_a9_proc_1
      + 1272 pi_d_a9_a2_proc_1 + 1272 pi_d_a3_a4_proc_0 + 1295 pi_d_a4_a3_proc_0
      + pi_d_a3_a5_proc_0 + pi_d_a3_a6_proc_0 + 1272 pi_d_a3_a7_proc_0
      + 1295 pi_d_a7_a3_proc_0 + 1295 pi_d_a3_a8_proc_0 + 1272 pi_d_a8_a3_proc_0
      + 1272 pi_d_a4_a5_proc_1 + 1272 pi_d_a4_a5_proc_0 + 1295 pi_d_a5_a4_proc_1
      + 1295 pi_d_a5_a4_proc_0 + 1295 pi_d_a4_a6_proc_1 + 1295 pi_d_a4_a6_proc_0
      + 1272 pi_d_a6_a4_proc_1 + 1272 pi_d_a6_a4_proc_0 + 2566 pi_d_a4_a7_proc_0
      + pi_d_a7_a4_proc_1 + 2567 pi_d_a7_a4_proc_0 + pi_d_a4_a8_proc_1
      + 2567 pi_d_a4_a8_proc_0 + 2566 pi_d_a8_a4_proc_0 + pi_d_a9_a4_proc_1
      + 2567 pi_d_a5_a6_proc_1 + pi_d_a5_a6_proc_0 + 2566 pi_d_a6_a5_proc_1
      + 1272 pi_d_a5_a7_proc_1 + 1272 pi_d_a5_a7_proc_0 + 1295 pi_d_a7_a5_proc_1
      + 1295 pi_d_a7_a5_proc_0 + 1295 pi_d_a5_a8_proc_1 + 1295 pi_d_a5_a8_proc_0
      + 1272 pi_d_a8_a5_proc_1 + 1272 pi_d_a8_a5_proc_0 + 1272 pi_d_a5_a9_proc_1
      + 1295 pi_d_a9_a5_proc_1 + 1295 pi_d_a6_a7_proc_1 + 1295 pi_d_a6_a7_proc_0
      + 1272 pi_d_a7_a6_proc_1 + 1272 pi_d_a7_a6_proc_0 + 1295 pi_d_a6_a8_proc_1
      + 1295 pi_d_a6_a8_proc_0 + 1272 pi_d_a8_a6_proc_1 + 1272 pi_d_a8_a6_proc_0
      + 1272 pi_d_a6_a9_proc_1 + 1295 pi_d_a9_a6_proc_1 + pi_d_a7_a8_proc_1
      + 2567 pi_d_a7_a8_proc_0 + 2566 pi_d_a8_a7_proc_0 + pi_d_a9_a7_proc_1
      - pi_d_a8_a9_proc_1 + 2 pi_d_a9_a8_proc_1 + pi_y2_a0_proc_1
      + pi_y2_a1_proc_0 + pi_y2_a2_proc_0 + pi_y2_a3_proc_0 + pi_y2_a4_proc_1
      + pi_y2_a5_proc_0 + pi_y2_a6_proc_0 + pi_y2_a7_proc_1 + pi_y2_a8_proc_1
      + pi_y2_a9_proc_1
Subject To
 c1: pi_nr_a0 + pi_nr_a1 + pi_nr_a2 + pi_nr_a3 + pi_nr_a4 + pi_nr_a5 + pi_nr_a6
     + pi_nr_a7 + pi_nr_a8 + pi_nr_a9 - pi_y1_a0 - pi_y1_a1 - pi_y1_a2
     - pi_y1_a3 - pi_y1_a4 - pi_y1_a5 - pi_y1_a6 - pi_y1_a7 - pi_y1_a8
     - pi_y1_a9 >= 1
 c2: pi_p_a0_a1 - pi_p_a2_a0 - pi_p_a4_a0 - pi_p_a1_a0 + pi_d_a0_a2_proc_1
     - pi_d_a2_a0_proc_1 + pi_d_a0_a4_proc_1 - pi_d_a4_a0_proc_1
     + pi_d_a0_a5_proc_1 - pi_d_a5_a0_proc_1 + pi_d_a0_a6_proc_1
     - pi_d_a6_a0_proc_1 + pi_d_a0_a7_proc_1 - pi_d_a7_a0_proc_1
     + pi_d_a0_a8_proc_1 - pi_d_a8_a0_proc_1 + pi_d_a0_a9_proc_1
     - pi_d_a9_a0_proc_1 >= 0
 c3: 1283 pi_p_a0_a1 + 1283 pi_d_a0_a2_proc_1 + 1283 pi_d_a0_a4_proc_1
     + 1283 pi_d_a0_a5_proc_1 + 1283 pi_d_a0_a6_proc_1 + 1283 pi_d_a0_a7_proc_1
     + 1283 pi_d_a0_a8_proc_1 + 1283 pi_d_a0_a9_proc_1 + pi_y1_a0
     + pi_y2_a0_proc_1 >= 0
 c4: - pi_p_a0_a1 + pi_p_a1_a0 + pi_d_a1_a2_proc_0 - pi_d_a2_a1_proc_0
     + pi_d_a1_a3_proc_0 - pi_d_a3_a1_proc_0 + pi_d_a1_a4_proc_0
     - pi_d_a4_a1_proc_0 + pi_d_a1_a5_proc_0 - pi_d_a5_a1_proc_0
     + pi_d_a1_a6_proc_0 - pi_d_a6_a1_proc_0 + pi_d_a1_a7_proc_0
     - pi_d_a7_a1_proc_0 + pi_d_a1_a8_proc_0 - pi_d_a8_a1_proc_0 >= 0
 c5: 1191 pi_p_a1_a0 + 1191 pi_d_a1_a2_proc_0 + 1191 pi_d_a1_a3_proc_0
     + 1191 pi_d_a1_a4_proc_0 + 1191 pi_d_a1_a5_proc_0 + 1191 pi_d_a1_a6_proc_0
     + 1191 pi_d_a1_a7_proc_0 + 1191 pi_d_a1_a8_proc_0 + pi_y1_a1
     + pi_y2_a1_proc_0 >= 0
 c6: pi_p_a2_a0 - pi_p_a3_a2 + pi_p_a2_a8 - pi_d_a0_a2_proc_1
     + pi_d_a2_a0_proc_1 - pi_d_a1_a2_proc_0 + pi_d_a2_a1_proc_0
     + pi_d_a2_a3_proc_0 - pi_d_a3_a2_proc_0 + pi_d_a2_a4_proc_1
     + pi_d_a2_a4_proc_0 - pi_d_a4_a2_proc_1 - pi_d_a4_a2_proc_0
     + pi_d_a2_a5_proc_1 + pi_d_a2_a5_proc_0 - pi_d_a5_a2_proc_1
     - pi_d_a5_a2_proc_0 + pi_d_a2_a6_proc_1 + pi_d_a2_a6_proc_0
     - pi_d_a6_a2_proc_1 - pi_d_a6_a2_proc_0 + pi_d_a2_a7_proc_1
     + pi_d_a2_a7_proc_0 - pi_d_a7_a2_proc_1 - pi_d_a7_a2_proc_0
     + pi_d_a2_a8_proc_1 + pi_d_a2_a8_proc_0 - pi_d_a8_a2_proc_1
     - pi_d_a8_a2_proc_0 + pi_d_a2_a9_proc_1 - pi_d_a9_a2_proc_1 >= 0
 c7: 609 pi_p_a2_a0 + 609 pi_p_a2_a8 + 609 pi_d_a2_a1_proc_0
     + 609 pi_d_a2_a3_proc_0 + 609 pi_d_a2_a4_proc_0 + 609 pi_d_a2_a5_proc_0
     + 609 pi_d_a2_a6_proc_0 + 609 pi_d_a2_a7_proc_0 + 609 pi_d_a2_a8_proc_0
     + pi_y1_a2 + pi_y2_a2_proc_0 >= 0
 c8: 1088 pi_p_a2_a0 + 1088 pi_p_a2_a8 + 1088 pi_d_a2_a0_proc_1
     + 1088 pi_d_a2_a4_proc_1 + 1088 pi_d_a2_a5_proc_1 + 1088 pi_d_a2_a6_proc_1
     + 1088 pi_d_a2_a7_proc_1 + 1088 pi_d_a2_a8_proc_1 + 1088 pi_d_a2_a9_proc_1
     + pi_y1_a2 + pi_y2_a2_proc_1 >= 0
 c9: pi_p_a3_a2 - pi_p_a5_a3 + pi_p_a3_a6 - pi_d_a1_a3_proc_0
     + pi_d_a3_a1_proc_0 - pi_d_a2_a3_proc_0 + pi_d_a3_a2_proc_0
     + pi_d_a3_a4_proc_0 - pi_d_a4_a3_proc_0 + pi_d_a3_a5_proc_0
     - pi_d_a5_a3_proc_0 + pi_d_a3_a6_proc_0 - pi_d_a6_a3_proc_0
     + pi_d_a3_a7_proc_0 - pi_d_a7_a3_proc_0 + pi_d_a3_a8_proc_0
     - pi_d_a8_a3_proc_0 >= 0
 c10: 1134 pi_p_a3_a2 + 1134 pi_p_a3_a6 + 1134 pi_d_a3_a1_proc_0
      + 1134 pi_d_a3_a2_proc_0 + 1134 pi_d_a3_a4_proc_0 + 1134 pi_d_a3_a5_proc_0
      + 1134 pi_d_a3_a6_proc_0 + 1134 pi_d_a3_a7_proc_0 + 1134 pi_d_a3_a8_proc_0
      + pi_y1_a3 + pi_y2_a3_proc_0 >= 0
 c11: pi_p_a4_a0 + pi_p_a4_a7 - pi_p_a6_a4 - pi_p_a9_a4 - pi_d_a0_a4_proc_1
      + pi_d_a4_a0_proc_1 - pi_d_a1_a4_proc_0 + pi_d_a4_a1_proc_0
      - pi_d_a2_a4_proc_1 - pi_d_a2_a4_proc_0 + pi_d_a4_a2_proc_1
      + pi_d_a4_a2_proc_0 - pi_d_a3_a4_proc_0 + pi_d_a4_a3_proc_0
      + pi_d_a4_a5_proc_1 + pi_d_a4_a5_proc_0 - pi_d_a5_a4_proc_1
      - pi_d_a5_a4_proc_0 + pi_d_a4_a6_proc_1 + pi_d_a4_a6_proc_0
      - pi_d_a6_a4_proc_1 - pi_d_a6_a4_proc_0 + pi_d_a4_a7_proc_1
      + pi_d_a4_a7_proc_0 - pi_d_a7_a4_proc_1 - pi_d_a7_a4_proc_0
      + pi_d_a4_a8_proc_1 + pi_d_a4_a8_proc_0 - pi_d_a8_a4_proc_1
      - pi_d_a8_a4_proc_0 + pi_d_a4_a9_proc_1 - pi_d_a9_a4_proc_1 >= 0
 c12: 776 pi_p_a4_a0 + 776 pi_p_a4_a7 + 776 pi_d_a4_a1_proc_0
      + 776 pi_d_a4_a2_proc_0 + 776 pi_d_a4_a3_proc_0 + 776 pi_d_a4_a5_proc_0
      + 776 pi_d_a4_a6_proc_0 + 776 pi_d_a4_a7_proc_0 + 776 pi_d_a4_a8_proc_0
      + pi_y1_a4 + pi_y2_a4_proc_0 >= 0
 c13: 422 pi_p_a4_a0 + 422 pi_p_a4_a7 + 422 pi_d_a4_a0_proc_1
      + 422 pi_d_a4_a2_proc_1 + 422 pi_d_a4_a5_proc_1 + 422 pi_d_a4_a6_proc_1
      + 422 pi_d_a4_a7_proc_1 + 422 pi_d_a4_a8_proc_1 + 422 pi_d_a4_a9_proc_1
      + pi_y1_a4 + pi_y2_a4_proc_1 >= 0
 c14: pi_p_a5_a3 - pi_p_a9_a5 - pi_p_a8_a5 + pi_p_a5_a8 - pi_d_a0_a5_proc_1
      + pi_d_a5_a0_proc_1 - pi_d_a1_a5_proc_0 + pi_d_a5_a1_proc_0
      - pi_d_a2_a5_proc_1 - pi_d_a2_a5_proc_0 + pi_d_a5_a2_proc_1
      + pi_d_a5_a2_proc_0 - pi_d_a3_a5_proc_0 + pi_d_a5_a3_proc_0
      - pi_d_a4_a5_proc_1 - pi_d_a4_a5_proc_0 + pi_d_a5_a4_proc_1
      + pi_d_a5_a4_proc_0 + pi_d_a5_a6_proc_1 + pi_d_a5_a6_proc_0
      - pi_d_a6_a5_proc_1 - pi_d_a6_a5_proc_0 + pi_d_a5_a7_proc_1
      + pi_d_a5_a7_proc_0 - pi_d_a7_a5_proc_1 - pi_d_a7_a5_proc_0
      + pi_d_a5_a8_proc_1 + pi_d_a5_a8_proc_0 - pi_d_a8_a5_proc_1
      - pi_d_a8_a5_proc_0 + pi_d_a5_a9_proc_1 - pi_d_a9_a5_proc_1 >= 0
 c15: 608 pi_p_a5_a3 + 608 pi_p_a5_a8 + 608 pi_d_a5_a1_proc_0
      + 608 pi_d_a5_a2_proc_0 + 608 pi_d_a5_a3_proc_0 + 608 pi_d_a5_a4_proc_0
      + 608 pi_d_a5_a6_proc_0 + 608 pi_d_a5_a7_proc_0 + 608 pi_d_a5_a8_proc_0
      + pi_y1_a5 + pi_y2_a5_proc_0 >= 0
 c16: 1008 pi_p_a5_a3 + 1008 pi_p_a5_a8 + 1008 pi_d_a5_a0_proc_1
      + 1008 pi_d_a5_a2_proc_1 + 1008 pi_d_a5_a4_proc_1 + 1008 pi_d_a5_a6_proc_1
      + 1008 pi_d_a5_a7_proc_1 + 1008 pi_d_a5_a8_proc_1 + 1008 pi_d_a5_a9_proc_1
      + pi_y1_a5 + pi_y2_a5_proc_1 >= 0
 c17: - pi_p_a3_a6 + pi_p_a6_a4 - pi_d_a0_a6_proc_1 + pi_d_a6_a0_proc_1
      - pi_d_a1_a6_proc_0 + pi_d_a6_a1_proc_0 - pi_d_a2_a6_proc_1
      - pi_d_a2_a6_proc_0 + pi_d_a6_a2_proc_1 + pi_d_a6_a2_proc_0
      - pi_d_a3_a6_proc_0 + pi_d_a6_a3_proc_0 - pi_d_a4_a6_proc_1
      - pi_d_a4_a6_proc_0 + pi_d_a6_a4_proc_1 + pi_d_a6_a4_proc_0
      - pi_d_a5_a6_proc_1 - pi_d_a5_a6_proc_0 + pi_d_a6_a5_proc_1
      + pi_d_a6_a5_proc_0 + pi_d_a6_a7_proc_1 + pi_d_a6_a7_proc_0
      - pi_d_a7_a6_proc_1 - pi_d_a7_a6_proc_0 + pi_d_a6_a8_proc_1
      + pi_d_a6_a8_proc_0 - pi_d_a8_a6_proc_1 - pi_d_a8_a6_proc_0
      + pi_d_a6_a9_proc_1 - pi_d_a9_a6_proc_1 >= 0
 c18: 571 pi_p_a6_a4 + 571 pi_d_a6_a1_proc_0 + 571 pi_d_a6_a2_proc_0
      + 571 pi_d_a6_a3_proc_0 + 571 pi_d_a6_a4_proc_0 + 571 pi_d_a6_a5_proc_0
      + 571 pi_d_a6_a7_proc_0 + 571 pi_d_a6_a8_proc_0 + pi_y1_a6
      + pi_y2_a6_proc_0 >= 0
 c19: 701 pi_p_a6_a4 + 701 pi_d_a6_a0_proc_1 + 701 pi_d_a6_a2_proc_1
      + 701 pi_d_a6_a4_proc_1 + 701 pi_d_a6_a5_proc_1 + 701 pi_d_a6_a7_proc_1
      + 701 pi_d_a6_a8_proc_1 + 701 pi_d_a6_a9_proc_1 + pi_y1_a6
      + pi_y2_a6_proc_1 >= 0
 c20: - pi_p_a4_a7 + pi_p_a7_a9 - pi_d_a0_a7_proc_1 + pi_d_a7_a0_proc_1
      - pi_d_a1_a7_proc_0 + pi_d_a7_a1_proc_0 - pi_d_a2_a7_proc_1
      - pi_d_a2_a7_proc_0 + pi_d_a7_a2_proc_1 + pi_d_a7_a2_proc_0
      - pi_d_a3_a7_proc_0 + pi_d_a7_a3_proc_0 - pi_d_a4_a7_proc_1
      - pi_d_a4_a7_proc_0 + pi_d_a7_a4_proc_1 + pi_d_a7_a4_proc_0
      - pi_d_a5_a7_proc_1 - pi_d_a5_a7_proc_0 + pi_d_a7_a5_proc_1
      + pi_d_a7_a5_proc_0 - pi_d_a6_a7_proc_1 - pi_d_a6_a7_proc_0
      + pi_d_a7_a6_proc_1 + pi_d_a7_a6_proc_0 + pi_d_a7_a8_proc_1
      + pi_d_a7_a8_proc_0 - pi_d_a8_a7_proc_1 - pi_d_a8_a7_proc_0
      + pi_d_a7_a9_proc_1 - pi_d_a9_a7_proc_1 >= 0
 c21: 826 pi_p_a7_a9 + 826 pi_d_a7_a1_proc_0 + 826 pi_d_a7_a2_proc_0
      + 826 pi_d_a7_a3_proc_0 + 826 pi_d_a7_a4_proc_0 + 826 pi_d_a7_a5_proc_0
      + 826 pi_d_a7_a6_proc_0 + 826 pi_d_a7_a8_proc_0 + pi_y1_a7
      + pi_y2_a7_proc_0 >= 0
 c22: 916 pi_p_a7_a9 + 916 pi_d_a7_a0_proc_1 + 916 pi_d_a7_a2_proc_1
      + 916 pi_d_a7_a4_proc_1 + 916 pi_d_a7_a5_proc_1 + 916 pi_d_a7_a6_proc_1
      + 916 pi_d_a7_a8_proc_1 + 916 pi_d_a7_a9_proc_1 + pi_y1_a7
      + pi_y2_a7_proc_1 >= 0
 c23: - pi_p_a2_a8 + pi_p_a8_a5 - pi_p_a5_a8 - pi_d_a0_a8_proc_1
      + pi_d_a8_a0_proc_1 - pi_d_a1_a8_proc_0 + pi_d_a8_a1_proc_0
      - pi_d_a2_a8_proc_1 - pi_d_a2_a8_proc_0 + pi_d_a8_a2_proc_1
      + pi_d_a8_a2_proc_0 - pi_d_a3_a8_proc_0 + pi_d_a8_a3_proc_0
      - pi_d_a4_a8_proc_1 - pi_d_a4_a8_proc_0 + pi_d_a8_a4_proc_1
      + pi_d_a8_a4_proc_0 - pi_d_a5_a8_proc_1 - pi_d_a5_a8_proc_0
      + pi_d_a8_a5_proc_1 + pi_d_a8_a5_proc_0 - pi_d_a6_a8_proc_1
      - pi_d_a6_a8_proc_0 + pi_d_a8_a6_proc_1 + pi_d_a8_a6_proc_0
      - pi_d_a7_a8_proc_1 - pi_d_a7_a8_proc_0 + pi_d_a8_a7_proc_1
      + pi_d_a8_a7_proc_0 + pi_d_a8_a9_proc_1 - pi_d_a9_a8_proc_1 >= 0
 c24: 1154 pi_p_a8_a5 + 1154 pi_d_a8_a1_proc_0 + 1154 pi_d_a8_a2_proc_0
      + 1154 pi_d_a8_a3_proc_0 + 1154 pi_d_a8_a4_proc_0 + 1154 pi_d_a8_a5_proc_0
      + 1154 pi_d_a8_a6_proc_0 + 1154 pi_d_a8_a7_proc_0 + pi_y1_a8
      + pi_y2_a8_proc_0 >= 0
 c25: 513 pi_p_a8_a5 + 513 pi_d_a8_a0_proc_1 + 513 pi_d_a8_a2_proc_1
      + 513 pi_d_a8_a4_proc_1 + 513 pi_d_a8_a5_proc_1 + 513 pi_d_a8_a6_proc_1
      + 513 pi_d_a8_a7_proc_1 + 513 pi_d_a8_a9_proc_1 + pi_y1_a8
      + pi_y2_a8_proc_1 >= 0
 c26: pi_p_a9_a5 - pi_p_a7_a9 + pi_p_a9_a4 - pi_d_a0_a9_proc_1
      + pi_d_a9_a0_proc_1 - pi_d_a2_a9_proc_1 + pi_d_a9_a2_proc_1
      - pi_d_a4_a9_proc_1 + pi_d_a9_a4_proc_1 - pi_d_a5_a9_proc_1
      + pi_d_a9_a5_proc_1 - pi_d_a6_a9_proc_1 + pi_d_a9_a6_proc_1
      - pi_d_a7_a9_proc_1 + pi_d_a9_a7_proc_1 - pi_d_a8_a9_proc_1
      + pi_d_a9_a8_proc_1 >= 0
 c27: 1183 pi_p_a9_a5 + 1183 pi_p_a9_a4 + 1183 pi_d_a9_a0_proc_1
      + 1183 pi_d_a9_a2_proc_1 + 1183 pi_d_a9_a4_proc_1 + 1183 pi_d_a9_a5_proc_1
      + 1183 pi_d_a9_a6_proc_1 + 1183 pi_d_a9_a7_proc_1 + 1183 pi_d_a9_a8_proc_1
      + pi_y1_a9 + pi_y2_a9_proc_1 >= 0

Bounds
       pi_y1_a0 Free
       pi_y1_a1 Free
       pi_y1_a2 Free
       pi_y1_a3 Free
       pi_y1_a4 Free
       pi_y1_a5 Free
       pi_y1_a6 Free
       pi_y1_a7 Free
       pi_y1_a8 Free
       pi_y1_a9 Free
End
