benchmark/results/graph__10-1000-0.10-02_1/graph__10-1000-0.10-02_1_QuintonOs_Benders_sub.txt
solution for: Quinton Bounded Benders_dual_sub
objective: 0.000231642
status: OPTIMAL_SOLUTION(2)
pi_d_a4_a0_proc_1=0.000
pi_d_a0_a7_proc_1=0.000
pi_d_a9_a4_proc_1=0.000
pi_d_a7_a8_proc_1=0.000
pi_d_a8_a9_proc_1=0.000
pi_y1_a0=-0.297
pi_y1_a4=-0.098
pi_y1_a7=-0.212
pi_y1_a8=-0.119
pi_y1_a9=-0.274
pi_y2_a4_proc_0=0.098
pi_y2_a7_proc_0=0.212
pi_y2_a8_proc_0=0.119
